g3 0 1 0	# problem camshape100
 199 200 1 0 99	# vars, constraints, objectives, ranges, eqns
 101 0	# nonlinear constraints, objectives
 0 0	# network constraints: nonlinear, linear
 100 0 0	# nonlinear vars in constraints, objectives, both
 0 0 0 1	# linear network variables; functions; arith, flags
 0 0 0 0 0	# discrete variables: binary, integer, nonlinear (b,c,o)
 596 100	# nonzeros in Jacobian, gradients
 0 0	# max name lengths: constraints, variables
 0 0 0 0 0	# common exprs: b,c,o,c1,o1
b
0 1 1.00015482411709
0 1 2
0 1 2
0 1 2
0 1 2
0 1 2
0 1 2
0 1 2
0 1 2
0 1 2
0 1 2
0 1 2
0 1 2
0 1 2
0 1 2
0 1 2
0 1 2
0 1 2
0 1 2
0 1 2
0 1 2
0 1 2
0 1 2
0 1 2
0 1 2
0 1 2
0 1 2
0 1 2
0 1 2
0 1 2
0 1 2
0 1 2
0 1 2
0 1 2
0 1 2
0 1 2
0 1 2
0 1 2
0 1 2
0 1 2
0 1 2
0 1 2
0 1 2
0 1 2
0 1 2
0 1 2
0 1 2
0 1 2
0 1 2
0 1 2
0 1 2
0 1 2
0 1 2
0 1 2
0 1 2
0 1 2
0 1 2
0 1 2
0 1 2
0 1 2
0 1 2
0 1 2
0 1 2
0 1 2
0 1 2
0 1 2
0 1 2
0 1 2
0 1 2
0 1 2
0 1 2
0 1 2
0 1 2
0 1 2
0 1 2
0 1 2
0 1 2
0 1 2
0 1 2
0 1 2
0 1 2
0 1 2
0 1 2
0 1 2
0 1 2
0 1 2
0 1 2
0 1 2
0 1 2
0 1 2
0 1 2
0 1 2
0 1 2
0 1 2
0 1 2
0 1 2
0 1 2
0 1 2
0 1 2
0 1.98133707334501 2
3
0 -0.0186629266549889 0.0186629266549889
0 -0.0186629266549889 0.0186629266549889
0 -0.0186629266549889 0.0186629266549889
0 -0.0186629266549889 0.0186629266549889
0 -0.0186629266549889 0.0186629266549889
0 -0.0186629266549889 0.0186629266549889
0 -0.0186629266549889 0.0186629266549889
0 -0.0186629266549889 0.0186629266549889
0 -0.0186629266549889 0.0186629266549889
0 -0.0186629266549889 0.0186629266549889
0 -0.0186629266549889 0.0186629266549889
0 -0.0186629266549889 0.0186629266549889
0 -0.0186629266549889 0.0186629266549889
0 -0.0186629266549889 0.0186629266549889
0 -0.0186629266549889 0.0186629266549889
0 -0.0186629266549889 0.0186629266549889
0 -0.0186629266549889 0.0186629266549889
0 -0.0186629266549889 0.0186629266549889
0 -0.0186629266549889 0.0186629266549889
0 -0.0186629266549889 0.0186629266549889
0 -0.0186629266549889 0.0186629266549889
0 -0.0186629266549889 0.0186629266549889
0 -0.0186629266549889 0.0186629266549889
0 -0.0186629266549889 0.0186629266549889
0 -0.0186629266549889 0.0186629266549889
0 -0.0186629266549889 0.0186629266549889
0 -0.0186629266549889 0.0186629266549889
0 -0.0186629266549889 0.0186629266549889
0 -0.0186629266549889 0.0186629266549889
0 -0.0186629266549889 0.0186629266549889
0 -0.0186629266549889 0.0186629266549889
0 -0.0186629266549889 0.0186629266549889
0 -0.0186629266549889 0.0186629266549889
0 -0.0186629266549889 0.0186629266549889
0 -0.0186629266549889 0.0186629266549889
0 -0.0186629266549889 0.0186629266549889
0 -0.0186629266549889 0.0186629266549889
0 -0.0186629266549889 0.0186629266549889
0 -0.0186629266549889 0.0186629266549889
0 -0.0186629266549889 0.0186629266549889
0 -0.0186629266549889 0.0186629266549889
0 -0.0186629266549889 0.0186629266549889
0 -0.0186629266549889 0.0186629266549889
0 -0.0186629266549889 0.0186629266549889
0 -0.0186629266549889 0.0186629266549889
0 -0.0186629266549889 0.0186629266549889
0 -0.0186629266549889 0.0186629266549889
0 -0.0186629266549889 0.0186629266549889
0 -0.0186629266549889 0.0186629266549889
0 -0.0186629266549889 0.0186629266549889
0 -0.0186629266549889 0.0186629266549889
0 -0.0186629266549889 0.0186629266549889
0 -0.0186629266549889 0.0186629266549889
0 -0.0186629266549889 0.0186629266549889
0 -0.0186629266549889 0.0186629266549889
0 -0.0186629266549889 0.0186629266549889
0 -0.0186629266549889 0.0186629266549889
0 -0.0186629266549889 0.0186629266549889
0 -0.0186629266549889 0.0186629266549889
0 -0.0186629266549889 0.0186629266549889
0 -0.0186629266549889 0.0186629266549889
0 -0.0186629266549889 0.0186629266549889
0 -0.0186629266549889 0.0186629266549889
0 -0.0186629266549889 0.0186629266549889
0 -0.0186629266549889 0.0186629266549889
0 -0.0186629266549889 0.0186629266549889
0 -0.0186629266549889 0.0186629266549889
0 -0.0186629266549889 0.0186629266549889
0 -0.0186629266549889 0.0186629266549889
0 -0.0186629266549889 0.0186629266549889
0 -0.0186629266549889 0.0186629266549889
0 -0.0186629266549889 0.0186629266549889
0 -0.0186629266549889 0.0186629266549889
0 -0.0186629266549889 0.0186629266549889
0 -0.0186629266549889 0.0186629266549889
0 -0.0186629266549889 0.0186629266549889
0 -0.0186629266549889 0.0186629266549889
0 -0.0186629266549889 0.0186629266549889
0 -0.0186629266549889 0.0186629266549889
0 -0.0186629266549889 0.0186629266549889
0 -0.0186629266549889 0.0186629266549889
0 -0.0186629266549889 0.0186629266549889
0 -0.0186629266549889 0.0186629266549889
0 -0.0186629266549889 0.0186629266549889
0 -0.0186629266549889 0.0186629266549889
0 -0.0186629266549889 0.0186629266549889
0 -0.0186629266549889 0.0186629266549889
0 -0.0186629266549889 0.0186629266549889
0 -0.0186629266549889 0.0186629266549889
0 -0.0186629266549889 0.0186629266549889
0 -0.0186629266549889 0.0186629266549889
0 -0.0186629266549889 0.0186629266549889
0 -0.0186629266549889 0.0186629266549889
0 -0.0186629266549889 0.0186629266549889
0 -0.0186629266549889 0.0186629266549889
0 -0.0186629266549889 0.0186629266549889
0 -0.0186629266549889 0.0186629266549889
0 -0.0186629266549889 0.0186629266549889
x100
0 1.00015482411709
1 1.5
2 1.5
3 1.5
4 1.5
5 1.5
6 1.5
7 1.5
8 1.5
9 1.5
10 1.5
11 1.5
12 1.5
13 1.5
14 1.5
15 1.5
16 1.5
17 1.5
18 1.5
19 1.5
20 1.5
21 1.5
22 1.5
23 1.5
24 1.5
25 1.5
26 1.5
27 1.5
28 1.5
29 1.5
30 1.5
31 1.5
32 1.5
33 1.5
34 1.5
35 1.5
36 1.5
37 1.5
38 1.5
39 1.5
40 1.5
41 1.5
42 1.5
43 1.5
44 1.5
45 1.5
46 1.5
47 1.5
48 1.5
49 1.5
50 1.5
51 1.5
52 1.5
53 1.5
54 1.5
55 1.5
56 1.5
57 1.5
58 1.5
59 1.5
60 1.5
61 1.5
62 1.5
63 1.5
64 1.5
65 1.5
66 1.5
67 1.5
68 1.5
69 1.5
70 1.5
71 1.5
72 1.5
73 1.5
74 1.5
75 1.5
76 1.5
77 1.5
78 1.5
79 1.5
80 1.5
81 1.5
82 1.5
83 1.5
84 1.5
85 1.5
86 1.5
87 1.5
88 1.5
89 1.5
90 1.5
91 1.5
92 1.5
93 1.5
94 1.5
95 1.5
96 1.5
97 1.5
98 1.5
99 1.98133707334501
r
1 0
1 0
1 0
1 0
1 0
1 0
1 0
1 0
1 0
1 0
1 0
1 0
1 0
1 0
1 0
1 0
1 0
1 0
1 0
1 0
1 0
1 0
1 0
1 0
1 0
1 0
1 0
1 0
1 0
1 0
1 0
1 0
1 0
1 0
1 0
1 0
1 0
1 0
1 0
1 0
1 0
1 0
1 0
1 0
1 0
1 0
1 0
1 0
1 0
1 0
1 0
1 0
1 0
1 0
1 0
1 0
1 0
1 0
1 0
1 0
1 0
1 0
1 0
1 0
1 0
1 0
1 0
1 0
1 0
1 0
1 0
1 0
1 0
1 0
1 0
1 0
1 0
1 0
1 0
1 0
1 0
1 0
1 0
1 0
1 0
1 0
1 0
1 0
1 0
1 0
1 0
1 0
1 0
1 0
1 0
1 0
1 0
1 0
1 0
1 0
1 0
4 0
4 0
4 0
4 0
4 0
4 0
4 0
4 0
4 0
4 0
4 0
4 0
4 0
4 0
4 0
4 0
4 0
4 0
4 0
4 0
4 0
4 0
4 0
4 0
4 0
4 0
4 0
4 0
4 0
4 0
4 0
4 0
4 0
4 0
4 0
4 0
4 0
4 0
4 0
4 0
4 0
4 0
4 0
4 0
4 0
4 0
4 0
4 0
4 0
4 0
4 0
4 0
4 0
4 0
4 0
4 0
4 0
4 0
4 0
4 0
4 0
4 0
4 0
4 0
4 0
4 0
4 0
4 0
4 0
4 0
4 0
4 0
4 0
4 0
4 0
4 0
4 0
4 0
4 0
4 0
4 0
4 0
4 0
4 0
4 0
4 0
4 0
4 0
4 0
4 0
4 0
4 0
4 0
4 0
4 0
4 0
4 0
4 0
4 0
C0
o54
3
o16
o2
v0
v1
o16
o2
v1
v2
o2
o2
n1.99984519984971
v0
v2
C1
o54
3
o16
o2
v1
v2
o16
o2
v2
v3
o2
o2
n1.99984519984971
v1
v3
C2
o54
3
o16
o2
v2
v3
o16
o2
v3
v4
o2
o2
n1.99984519984971
v2
v4
C3
o54
3
o16
o2
v3
v4
o16
o2
v4
v5
o2
o2
n1.99984519984971
v3
v5
C4
o54
3
o16
o2
v4
v5
o16
o2
v5
v6
o2
o2
n1.99984519984971
v4
v6
C5
o54
3
o16
o2
v5
v6
o16
o2
v6
v7
o2
o2
n1.99984519984971
v5
v7
C6
o54
3
o16
o2
v6
v7
o16
o2
v7
v8
o2
o2
n1.99984519984971
v6
v8
C7
o54
3
o16
o2
v7
v8
o16
o2
v8
v9
o2
o2
n1.99984519984971
v7
v9
C8
o54
3
o16
o2
v8
v9
o16
o2
v9
v10
o2
o2
n1.99984519984971
v8
v10
C9
o54
3
o16
o2
v9
v10
o16
o2
v10
v11
o2
o2
n1.99984519984971
v9
v11
C10
o54
3
o16
o2
v10
v11
o16
o2
v11
v12
o2
o2
n1.99984519984971
v10
v12
C11
o54
3
o16
o2
v11
v12
o16
o2
v12
v13
o2
o2
n1.99984519984971
v11
v13
C12
o54
3
o16
o2
v12
v13
o16
o2
v13
v14
o2
o2
n1.99984519984971
v12
v14
C13
o54
3
o16
o2
v13
v14
o16
o2
v14
v15
o2
o2
n1.99984519984971
v13
v15
C14
o54
3
o16
o2
v14
v15
o16
o2
v15
v16
o2
o2
n1.99984519984971
v14
v16
C15
o54
3
o16
o2
v15
v16
o16
o2
v16
v17
o2
o2
n1.99984519984971
v15
v17
C16
o54
3
o16
o2
v16
v17
o16
o2
v17
v18
o2
o2
n1.99984519984971
v16
v18
C17
o54
3
o16
o2
v17
v18
o16
o2
v18
v19
o2
o2
n1.99984519984971
v17
v19
C18
o54
3
o16
o2
v18
v19
o16
o2
v19
v20
o2
o2
n1.99984519984971
v18
v20
C19
o54
3
o16
o2
v19
v20
o16
o2
v20
v21
o2
o2
n1.99984519984971
v19
v21
C20
o54
3
o16
o2
v20
v21
o16
o2
v21
v22
o2
o2
n1.99984519984971
v20
v22
C21
o54
3
o16
o2
v21
v22
o16
o2
v22
v23
o2
o2
n1.99984519984971
v21
v23
C22
o54
3
o16
o2
v22
v23
o16
o2
v23
v24
o2
o2
n1.99984519984971
v22
v24
C23
o54
3
o16
o2
v23
v24
o16
o2
v24
v25
o2
o2
n1.99984519984971
v23
v25
C24
o54
3
o16
o2
v24
v25
o16
o2
v25
v26
o2
o2
n1.99984519984971
v24
v26
C25
o54
3
o16
o2
v25
v26
o16
o2
v26
v27
o2
o2
n1.99984519984971
v25
v27
C26
o54
3
o16
o2
v26
v27
o16
o2
v27
v28
o2
o2
n1.99984519984971
v26
v28
C27
o54
3
o16
o2
v27
v28
o16
o2
v28
v29
o2
o2
n1.99984519984971
v27
v29
C28
o54
3
o16
o2
v28
v29
o16
o2
v29
v30
o2
o2
n1.99984519984971
v28
v30
C29
o54
3
o16
o2
v29
v30
o16
o2
v30
v31
o2
o2
n1.99984519984971
v29
v31
C30
o54
3
o16
o2
v30
v31
o16
o2
v31
v32
o2
o2
n1.99984519984971
v30
v32
C31
o54
3
o16
o2
v31
v32
o16
o2
v32
v33
o2
o2
n1.99984519984971
v31
v33
C32
o54
3
o16
o2
v32
v33
o16
o2
v33
v34
o2
o2
n1.99984519984971
v32
v34
C33
o54
3
o16
o2
v33
v34
o16
o2
v34
v35
o2
o2
n1.99984519984971
v33
v35
C34
o54
3
o16
o2
v34
v35
o16
o2
v35
v36
o2
o2
n1.99984519984971
v34
v36
C35
o54
3
o16
o2
v35
v36
o16
o2
v36
v37
o2
o2
n1.99984519984971
v35
v37
C36
o54
3
o16
o2
v36
v37
o16
o2
v37
v38
o2
o2
n1.99984519984971
v36
v38
C37
o54
3
o16
o2
v37
v38
o16
o2
v38
v39
o2
o2
n1.99984519984971
v37
v39
C38
o54
3
o16
o2
v38
v39
o16
o2
v39
v40
o2
o2
n1.99984519984971
v38
v40
C39
o54
3
o16
o2
v39
v40
o16
o2
v40
v41
o2
o2
n1.99984519984971
v39
v41
C40
o54
3
o16
o2
v40
v41
o16
o2
v41
v42
o2
o2
n1.99984519984971
v40
v42
C41
o54
3
o16
o2
v41
v42
o16
o2
v42
v43
o2
o2
n1.99984519984971
v41
v43
C42
o54
3
o16
o2
v42
v43
o16
o2
v43
v44
o2
o2
n1.99984519984971
v42
v44
C43
o54
3
o16
o2
v43
v44
o16
o2
v44
v45
o2
o2
n1.99984519984971
v43
v45
C44
o54
3
o16
o2
v44
v45
o16
o2
v45
v46
o2
o2
n1.99984519984971
v44
v46
C45
o54
3
o16
o2
v45
v46
o16
o2
v46
v47
o2
o2
n1.99984519984971
v45
v47
C46
o54
3
o16
o2
v46
v47
o16
o2
v47
v48
o2
o2
n1.99984519984971
v46
v48
C47
o54
3
o16
o2
v47
v48
o16
o2
v48
v49
o2
o2
n1.99984519984971
v47
v49
C48
o54
3
o16
o2
v48
v49
o16
o2
v49
v50
o2
o2
n1.99984519984971
v48
v50
C49
o54
3
o16
o2
v49
v50
o16
o2
v50
v51
o2
o2
n1.99984519984971
v49
v51
C50
o54
3
o16
o2
v50
v51
o16
o2
v51
v52
o2
o2
n1.99984519984971
v50
v52
C51
o54
3
o16
o2
v51
v52
o16
o2
v52
v53
o2
o2
n1.99984519984971
v51
v53
C52
o54
3
o16
o2
v52
v53
o16
o2
v53
v54
o2
o2
n1.99984519984971
v52
v54
C53
o54
3
o16
o2
v53
v54
o16
o2
v54
v55
o2
o2
n1.99984519984971
v53
v55
C54
o54
3
o16
o2
v54
v55
o16
o2
v55
v56
o2
o2
n1.99984519984971
v54
v56
C55
o54
3
o16
o2
v55
v56
o16
o2
v56
v57
o2
o2
n1.99984519984971
v55
v57
C56
o54
3
o16
o2
v56
v57
o16
o2
v57
v58
o2
o2
n1.99984519984971
v56
v58
C57
o54
3
o16
o2
v57
v58
o16
o2
v58
v59
o2
o2
n1.99984519984971
v57
v59
C58
o54
3
o16
o2
v58
v59
o16
o2
v59
v60
o2
o2
n1.99984519984971
v58
v60
C59
o54
3
o16
o2
v59
v60
o16
o2
v60
v61
o2
o2
n1.99984519984971
v59
v61
C60
o54
3
o16
o2
v60
v61
o16
o2
v61
v62
o2
o2
n1.99984519984971
v60
v62
C61
o54
3
o16
o2
v61
v62
o16
o2
v62
v63
o2
o2
n1.99984519984971
v61
v63
C62
o54
3
o16
o2
v62
v63
o16
o2
v63
v64
o2
o2
n1.99984519984971
v62
v64
C63
o54
3
o16
o2
v63
v64
o16
o2
v64
v65
o2
o2
n1.99984519984971
v63
v65
C64
o54
3
o16
o2
v64
v65
o16
o2
v65
v66
o2
o2
n1.99984519984971
v64
v66
C65
o54
3
o16
o2
v65
v66
o16
o2
v66
v67
o2
o2
n1.99984519984971
v65
v67
C66
o54
3
o16
o2
v66
v67
o16
o2
v67
v68
o2
o2
n1.99984519984971
v66
v68
C67
o54
3
o16
o2
v67
v68
o16
o2
v68
v69
o2
o2
n1.99984519984971
v67
v69
C68
o54
3
o16
o2
v68
v69
o16
o2
v69
v70
o2
o2
n1.99984519984971
v68
v70
C69
o54
3
o16
o2
v69
v70
o16
o2
v70
v71
o2
o2
n1.99984519984971
v69
v71
C70
o54
3
o16
o2
v70
v71
o16
o2
v71
v72
o2
o2
n1.99984519984971
v70
v72
C71
o54
3
o16
o2
v71
v72
o16
o2
v72
v73
o2
o2
n1.99984519984971
v71
v73
C72
o54
3
o16
o2
v72
v73
o16
o2
v73
v74
o2
o2
n1.99984519984971
v72
v74
C73
o54
3
o16
o2
v73
v74
o16
o2
v74
v75
o2
o2
n1.99984519984971
v73
v75
C74
o54
3
o16
o2
v74
v75
o16
o2
v75
v76
o2
o2
n1.99984519984971
v74
v76
C75
o54
3
o16
o2
v75
v76
o16
o2
v76
v77
o2
o2
n1.99984519984971
v75
v77
C76
o54
3
o16
o2
v76
v77
o16
o2
v77
v78
o2
o2
n1.99984519984971
v76
v78
C77
o54
3
o16
o2
v77
v78
o16
o2
v78
v79
o2
o2
n1.99984519984971
v77
v79
C78
o54
3
o16
o2
v78
v79
o16
o2
v79
v80
o2
o2
n1.99984519984971
v78
v80
C79
o54
3
o16
o2
v79
v80
o16
o2
v80
v81
o2
o2
n1.99984519984971
v79
v81
C80
o54
3
o16
o2
v80
v81
o16
o2
v81
v82
o2
o2
n1.99984519984971
v80
v82
C81
o54
3
o16
o2
v81
v82
o16
o2
v82
v83
o2
o2
n1.99984519984971
v81
v83
C82
o54
3
o16
o2
v82
v83
o16
o2
v83
v84
o2
o2
n1.99984519984971
v82
v84
C83
o54
3
o16
o2
v83
v84
o16
o2
v84
v85
o2
o2
n1.99984519984971
v83
v85
C84
o54
3
o16
o2
v84
v85
o16
o2
v85
v86
o2
o2
n1.99984519984971
v84
v86
C85
o54
3
o16
o2
v85
v86
o16
o2
v86
v87
o2
o2
n1.99984519984971
v85
v87
C86
o54
3
o16
o2
v86
v87
o16
o2
v87
v88
o2
o2
n1.99984519984971
v86
v88
C87
o54
3
o16
o2
v87
v88
o16
o2
v88
v89
o2
o2
n1.99984519984971
v87
v89
C88
o54
3
o16
o2
v88
v89
o16
o2
v89
v90
o2
o2
n1.99984519984971
v88
v90
C89
o54
3
o16
o2
v89
v90
o16
o2
v90
v91
o2
o2
n1.99984519984971
v89
v91
C90
o54
3
o16
o2
v90
v91
o16
o2
v91
v92
o2
o2
n1.99984519984971
v90
v92
C91
o54
3
o16
o2
v91
v92
o16
o2
v92
v93
o2
o2
n1.99984519984971
v91
v93
C92
o54
3
o16
o2
v92
v93
o16
o2
v93
v94
o2
o2
n1.99984519984971
v92
v94
C93
o54
3
o16
o2
v93
v94
o16
o2
v94
v95
o2
o2
n1.99984519984971
v93
v95
C94
o54
3
o16
o2
v94
v95
o16
o2
v95
v96
o2
o2
n1.99984519984971
v94
v96
C95
o54
3
o16
o2
v95
v96
o16
o2
v96
v97
o2
o2
n1.99984519984971
v95
v97
C96
o54
3
o16
o2
v96
v97
o16
o2
v97
v98
o2
o2
n1.99984519984971
v96
v98
C97
o54
3
o16
o2
v97
v98
o16
o2
v98
v99
o2
o2
n1.99984519984971
v97
v99
C98
o16
o2
v0
v1
C99
o16
o2
v98
v99
C100
o2
n1.99984519984971
o5
v99
n2
C101
n0
C102
n0
C103
n0
C104
n0
C105
n0
C106
n0
C107
n0
C108
n0
C109
n0
C110
n0
C111
n0
C112
n0
C113
n0
C114
n0
C115
n0
C116
n0
C117
n0
C118
n0
C119
n0
C120
n0
C121
n0
C122
n0
C123
n0
C124
n0
C125
n0
C126
n0
C127
n0
C128
n0
C129
n0
C130
n0
C131
n0
C132
n0
C133
n0
C134
n0
C135
n0
C136
n0
C137
n0
C138
n0
C139
n0
C140
n0
C141
n0
C142
n0
C143
n0
C144
n0
C145
n0
C146
n0
C147
n0
C148
n0
C149
n0
C150
n0
C151
n0
C152
n0
C153
n0
C154
n0
C155
n0
C156
n0
C157
n0
C158
n0
C159
n0
C160
n0
C161
n0
C162
n0
C163
n0
C164
n0
C165
n0
C166
n0
C167
n0
C168
n0
C169
n0
C170
n0
C171
n0
C172
n0
C173
n0
C174
n0
C175
n0
C176
n0
C177
n0
C178
n0
C179
n0
C180
n0
C181
n0
C182
n0
C183
n0
C184
n0
C185
n0
C186
n0
C187
n0
C188
n0
C189
n0
C190
n0
C191
n0
C192
n0
C193
n0
C194
n0
C195
n0
C196
n0
C197
n0
C198
n0
C199
n0
O0 0
n0
k198
3
8
13
18
23
28
33
38
43
48
53
58
63
68
73
78
83
88
93
98
103
108
113
118
123
128
133
138
143
148
153
158
163
168
173
178
183
188
193
198
203
208
213
218
223
228
233
238
243
248
253
258
263
268
273
278
283
288
293
298
303
308
313
318
323
328
333
338
343
348
353
358
363
368
373
378
383
388
393
398
403
408
413
418
423
428
433
438
443
448
453
458
463
468
473
478
483
488
493
497
498
499
500
501
502
503
504
505
506
507
508
509
510
511
512
513
514
515
516
517
518
519
520
521
522
523
524
525
526
527
528
529
530
531
532
533
534
535
536
537
538
539
540
541
542
543
544
545
546
547
548
549
550
551
552
553
554
555
556
557
558
559
560
561
562
563
564
565
566
567
568
569
570
571
572
573
574
575
576
577
578
579
580
581
582
583
584
585
586
587
588
589
590
591
592
593
594
595
J0 3
0 0
1 0
2 0
J1 3
1 0
2 0
3 0
J2 3
2 0
3 0
4 0
J3 3
3 0
4 0
5 0
J4 3
4 0
5 0
6 0
J5 3
5 0
6 0
7 0
J6 3
6 0
7 0
8 0
J7 3
7 0
8 0
9 0
J8 3
8 0
9 0
10 0
J9 3
9 0
10 0
11 0
J10 3
10 0
11 0
12 0
J11 3
11 0
12 0
13 0
J12 3
12 0
13 0
14 0
J13 3
13 0
14 0
15 0
J14 3
14 0
15 0
16 0
J15 3
15 0
16 0
17 0
J16 3
16 0
17 0
18 0
J17 3
17 0
18 0
19 0
J18 3
18 0
19 0
20 0
J19 3
19 0
20 0
21 0
J20 3
20 0
21 0
22 0
J21 3
21 0
22 0
23 0
J22 3
22 0
23 0
24 0
J23 3
23 0
24 0
25 0
J24 3
24 0
25 0
26 0
J25 3
25 0
26 0
27 0
J26 3
26 0
27 0
28 0
J27 3
27 0
28 0
29 0
J28 3
28 0
29 0
30 0
J29 3
29 0
30 0
31 0
J30 3
30 0
31 0
32 0
J31 3
31 0
32 0
33 0
J32 3
32 0
33 0
34 0
J33 3
33 0
34 0
35 0
J34 3
34 0
35 0
36 0
J35 3
35 0
36 0
37 0
J36 3
36 0
37 0
38 0
J37 3
37 0
38 0
39 0
J38 3
38 0
39 0
40 0
J39 3
39 0
40 0
41 0
J40 3
40 0
41 0
42 0
J41 3
41 0
42 0
43 0
J42 3
42 0
43 0
44 0
J43 3
43 0
44 0
45 0
J44 3
44 0
45 0
46 0
J45 3
45 0
46 0
47 0
J46 3
46 0
47 0
48 0
J47 3
47 0
48 0
49 0
J48 3
48 0
49 0
50 0
J49 3
49 0
50 0
51 0
J50 3
50 0
51 0
52 0
J51 3
51 0
52 0
53 0
J52 3
52 0
53 0
54 0
J53 3
53 0
54 0
55 0
J54 3
54 0
55 0
56 0
J55 3
55 0
56 0
57 0
J56 3
56 0
57 0
58 0
J57 3
57 0
58 0
59 0
J58 3
58 0
59 0
60 0
J59 3
59 0
60 0
61 0
J60 3
60 0
61 0
62 0
J61 3
61 0
62 0
63 0
J62 3
62 0
63 0
64 0
J63 3
63 0
64 0
65 0
J64 3
64 0
65 0
66 0
J65 3
65 0
66 0
67 0
J66 3
66 0
67 0
68 0
J67 3
67 0
68 0
69 0
J68 3
68 0
69 0
70 0
J69 3
69 0
70 0
71 0
J70 3
70 0
71 0
72 0
J71 3
71 0
72 0
73 0
J72 3
72 0
73 0
74 0
J73 3
73 0
74 0
75 0
J74 3
74 0
75 0
76 0
J75 3
75 0
76 0
77 0
J76 3
76 0
77 0
78 0
J77 3
77 0
78 0
79 0
J78 3
78 0
79 0
80 0
J79 3
79 0
80 0
81 0
J80 3
80 0
81 0
82 0
J81 3
81 0
82 0
83 0
J82 3
82 0
83 0
84 0
J83 3
83 0
84 0
85 0
J84 3
84 0
85 0
86 0
J85 3
85 0
86 0
87 0
J86 3
86 0
87 0
88 0
J87 3
87 0
88 0
89 0
J88 3
88 0
89 0
90 0
J89 3
89 0
90 0
91 0
J90 3
90 0
91 0
92 0
J91 3
91 0
92 0
93 0
J92 3
92 0
93 0
94 0
J93 3
93 0
94 0
95 0
J94 3
94 0
95 0
96 0
J95 3
95 0
96 0
97 0
J96 3
96 0
97 0
98 0
J97 3
97 0
98 0
99 0
J98 2
0 -1
1 1.99984519984971
J99 2
98 3.99969039969942
99 -2
J100 1
99 -4
J101 3
0 1
1 -1
100 1
J102 3
1 1
2 -1
101 1
J103 3
2 1
3 -1
102 1
J104 3
3 1
4 -1
103 1
J105 3
4 1
5 -1
104 1
J106 3
5 1
6 -1
105 1
J107 3
6 1
7 -1
106 1
J108 3
7 1
8 -1
107 1
J109 3
8 1
9 -1
108 1
J110 3
9 1
10 -1
109 1
J111 3
10 1
11 -1
110 1
J112 3
11 1
12 -1
111 1
J113 3
12 1
13 -1
112 1
J114 3
13 1
14 -1
113 1
J115 3
14 1
15 -1
114 1
J116 3
15 1
16 -1
115 1
J117 3
16 1
17 -1
116 1
J118 3
17 1
18 -1
117 1
J119 3
18 1
19 -1
118 1
J120 3
19 1
20 -1
119 1
J121 3
20 1
21 -1
120 1
J122 3
21 1
22 -1
121 1
J123 3
22 1
23 -1
122 1
J124 3
23 1
24 -1
123 1
J125 3
24 1
25 -1
124 1
J126 3
25 1
26 -1
125 1
J127 3
26 1
27 -1
126 1
J128 3
27 1
28 -1
127 1
J129 3
28 1
29 -1
128 1
J130 3
29 1
30 -1
129 1
J131 3
30 1
31 -1
130 1
J132 3
31 1
32 -1
131 1
J133 3
32 1
33 -1
132 1
J134 3
33 1
34 -1
133 1
J135 3
34 1
35 -1
134 1
J136 3
35 1
36 -1
135 1
J137 3
36 1
37 -1
136 1
J138 3
37 1
38 -1
137 1
J139 3
38 1
39 -1
138 1
J140 3
39 1
40 -1
139 1
J141 3
40 1
41 -1
140 1
J142 3
41 1
42 -1
141 1
J143 3
42 1
43 -1
142 1
J144 3
43 1
44 -1
143 1
J145 3
44 1
45 -1
144 1
J146 3
45 1
46 -1
145 1
J147 3
46 1
47 -1
146 1
J148 3
47 1
48 -1
147 1
J149 3
48 1
49 -1
148 1
J150 3
49 1
50 -1
149 1
J151 3
50 1
51 -1
150 1
J152 3
51 1
52 -1
151 1
J153 3
52 1
53 -1
152 1
J154 3
53 1
54 -1
153 1
J155 3
54 1
55 -1
154 1
J156 3
55 1
56 -1
155 1
J157 3
56 1
57 -1
156 1
J158 3
57 1
58 -1
157 1
J159 3
58 1
59 -1
158 1
J160 3
59 1
60 -1
159 1
J161 3
60 1
61 -1
160 1
J162 3
61 1
62 -1
161 1
J163 3
62 1
63 -1
162 1
J164 3
63 1
64 -1
163 1
J165 3
64 1
65 -1
164 1
J166 3
65 1
66 -1
165 1
J167 3
66 1
67 -1
166 1
J168 3
67 1
68 -1
167 1
J169 3
68 1
69 -1
168 1
J170 3
69 1
70 -1
169 1
J171 3
70 1
71 -1
170 1
J172 3
71 1
72 -1
171 1
J173 3
72 1
73 -1
172 1
J174 3
73 1
74 -1
173 1
J175 3
74 1
75 -1
174 1
J176 3
75 1
76 -1
175 1
J177 3
76 1
77 -1
176 1
J178 3
77 1
78 -1
177 1
J179 3
78 1
79 -1
178 1
J180 3
79 1
80 -1
179 1
J181 3
80 1
81 -1
180 1
J182 3
81 1
82 -1
181 1
J183 3
82 1
83 -1
182 1
J184 3
83 1
84 -1
183 1
J185 3
84 1
85 -1
184 1
J186 3
85 1
86 -1
185 1
J187 3
86 1
87 -1
186 1
J188 3
87 1
88 -1
187 1
J189 3
88 1
89 -1
188 1
J190 3
89 1
90 -1
189 1
J191 3
90 1
91 -1
190 1
J192 3
91 1
92 -1
191 1
J193 3
92 1
93 -1
192 1
J194 3
93 1
94 -1
193 1
J195 3
94 1
95 -1
194 1
J196 3
95 1
96 -1
195 1
J197 3
96 1
97 -1
196 1
J198 3
97 1
98 -1
197 1
J199 3
98 1
99 -1
198 1
G0 100
0 -0.0314159265358979
1 -0.0314159265358979
2 -0.0314159265358979
3 -0.0314159265358979
4 -0.0314159265358979
5 -0.0314159265358979
6 -0.0314159265358979
7 -0.0314159265358979
8 -0.0314159265358979
9 -0.0314159265358979
10 -0.0314159265358979
11 -0.0314159265358979
12 -0.0314159265358979
13 -0.0314159265358979
14 -0.0314159265358979
15 -0.0314159265358979
16 -0.0314159265358979
17 -0.0314159265358979
18 -0.0314159265358979
19 -0.0314159265358979
20 -0.0314159265358979
21 -0.0314159265358979
22 -0.0314159265358979
23 -0.0314159265358979
24 -0.0314159265358979
25 -0.0314159265358979
26 -0.0314159265358979
27 -0.0314159265358979
28 -0.0314159265358979
29 -0.0314159265358979
30 -0.0314159265358979
31 -0.0314159265358979
32 -0.0314159265358979
33 -0.0314159265358979
34 -0.0314159265358979
35 -0.0314159265358979
36 -0.0314159265358979
37 -0.0314159265358979
38 -0.0314159265358979
39 -0.0314159265358979
40 -0.0314159265358979
41 -0.0314159265358979
42 -0.0314159265358979
43 -0.0314159265358979
44 -0.0314159265358979
45 -0.0314159265358979
46 -0.0314159265358979
47 -0.0314159265358979
48 -0.0314159265358979
49 -0.0314159265358979
50 -0.0314159265358979
51 -0.0314159265358979
52 -0.0314159265358979
53 -0.0314159265358979
54 -0.0314159265358979
55 -0.0314159265358979
56 -0.0314159265358979
57 -0.0314159265358979
58 -0.0314159265358979
59 -0.0314159265358979
60 -0.0314159265358979
61 -0.0314159265358979
62 -0.0314159265358979
63 -0.0314159265358979
64 -0.0314159265358979
65 -0.0314159265358979
66 -0.0314159265358979
67 -0.0314159265358979
68 -0.0314159265358979
69 -0.0314159265358979
70 -0.0314159265358979
71 -0.0314159265358979
72 -0.0314159265358979
73 -0.0314159265358979
74 -0.0314159265358979
75 -0.0314159265358979
76 -0.0314159265358979
77 -0.0314159265358979
78 -0.0314159265358979
79 -0.0314159265358979
80 -0.0314159265358979
81 -0.0314159265358979
82 -0.0314159265358979
83 -0.0314159265358979
84 -0.0314159265358979
85 -0.0314159265358979
86 -0.0314159265358979
87 -0.0314159265358979
88 -0.0314159265358979
89 -0.0314159265358979
90 -0.0314159265358979
91 -0.0314159265358979
92 -0.0314159265358979
93 -0.0314159265358979
94 -0.0314159265358979
95 -0.0314159265358979
96 -0.0314159265358979
97 -0.0314159265358979
98 -0.0314159265358979
99 -0.0314159265358979
